
Gurobi 10.0.1 (linux64) logging started Tue Sep 12 17:30:12 2023

Set parameter LogFile to value "./log/chr15b/chr15b.log"
Set parameter TimeLimit to value 180
Gurobi Optimizer version 10.0.1 build v10.0.1rc0 (linux64)

CPU model: 12th Gen Intel(R) Core(TM) i5-12600KF, instruction set [SSE2|AVX|AVX2]
Thread count: 8 physical cores, 16 logical processors, using up to 16 threads

Optimize a model with 30 rows, 225 columns and 450 nonzeros
Model fingerprint: 0x00d61062
Model has 2940 quadratic objective terms
Variable types: 0 continuous, 225 integer (225 binary)
Coefficient statistics:
  Matrix range     [1e+00, 1e+00]
  Objective range  [0e+00, 0e+00]
  QObjective range [8e+00, 3e+04]
  Bounds range     [1e+00, 1e+00]
  RHS range        [1e+00, 1e+00]
Found heuristic solution: objective 45168.000000
Presolve time: 0.01s
Presolved: 105 rows, 300 columns, 3540 nonzeros
Variable types: 0 continuous, 300 integer (225 binary)

Root relaxation: objective 0.000000e+00, 68 iterations, 0.00 seconds (0.00 work units)

    Nodes    |    Current Node    |     Objective Bounds      |     Work
 Expl Unexpl |  Obj  Depth IntInf | Incumbent    BestBd   Gap | It/Node Time

     0     0    0.00000    0   15 45168.0000    0.00000   100%     -    0s
H    0     0                    43518.000000    0.00000   100%     -    0s
H    0     0                    28230.000000    0.00000   100%     -    0s
     0     0    0.00000    0   25 28230.0000    0.00000   100%     -    0s
H    0     0                    26176.000000    0.00000   100%     -    0s
H    0     0                    23194.000000    0.00000   100%     -    0s
     0     0    0.00000    0   16 23194.0000    0.00000   100%     -    0s
H    0     0                    18668.000000    0.00000   100%     -    0s
     0     0    0.00000    0   18 18668.0000    0.00000   100%     -    0s
H    0     0                    12954.000000    0.00000   100%     -    0s
     0     0    0.00000    0   30 12954.0000    0.00000   100%     -    0s
H    0     0                    12762.000000    0.00000   100%     -    0s
     0     0    0.00000    0   16 12762.0000    0.00000   100%     -    0s
     0     0    0.00000    0   15 12762.0000    0.00000   100%     -    0s
     0     0    0.00000    0   20 12762.0000    0.00000   100%     -    0s
     0     0    0.00000    0   19 12762.0000    0.00000   100%     -    0s
     0     2    0.00000    0   19 12762.0000    0.00000   100%     -    0s
H   75    70                    12728.000000    0.00000   100%  14.8    0s
H  115   106                    12132.000000    0.00000   100%  13.8    0s
H  127   106                    12106.000000    0.00000   100%  14.0    0s
H  135   106                    11760.000000    0.00000   100%  13.8    0s
H  171   149                    11676.000000    0.00000   100%  13.1    0s
H  201   149                    11370.000000    0.00000   100%  14.0    0s
H  207   149                    10688.000000    0.00000   100%  14.4    0s
H  342   318                    9836.0000000    0.00000   100%  13.7    0s
H  842   564                    9456.0000000    0.00000   100%  12.7    0s
H 3134  1212                    9442.0000000  646.72953  93.2%  16.2    0s
* 5801  1109              62    9432.0000000  646.72953  93.1%  19.7    0s
* 7063   987              76    9086.0000000  646.72953  92.9%  21.5    0s
H 7185   998                    9056.0000000  646.72953  92.9%  21.6    1s
* 7227  1014              79    8990.0000000  646.72953  92.8%  21.7    1s
*10565  1128              74    8626.0000000 2554.79628  70.4%  21.3    1s
H14135   688                    8210.0000000 4840.94361  41.0%  20.3    1s
*14259   362              47    7990.0000000 4929.40626  38.3%  20.2    1s

Cutting planes:
  Gomory: 2
  Implied bound: 4
  MIR: 5
  StrongCG: 2
  Flow cover: 25
  GUB cover: 2
  Zero half: 3
  RLT: 1
  Relax-and-lift: 4

Explored 15634 nodes (305066 simplex iterations) in 1.48 seconds (1.71 work units)
Thread count was 16 (of 16 available processors)

Solution count 10: 7990 8210 8626 ... 9836

Optimal solution found (tolerance 1.00e-04)
Best objective 7.990000000000e+03, best bound 7.990000000000e+03, gap 0.0000%
